NAME 50_2_25_1
ROWS
 N COST
 L LK0
 L LK1
 L FK0
 L FK1
COLUMNS
 X0 COST 3.
 X0 LK0 -1.
 X0 LK1 -4.
 X0 FK0 1.
 X0 FK1 0.
 X1 COST 6.
 X1 LK0 3.
 X1 LK1 3.
 X1 FK0 0.
 X1 FK1 0.
 X2 COST -4.
 X2 LK0 4.
 X2 LK1 2.
 X2 FK0 0.
 X2 FK1 0.
 X3 COST -4.
 X3 LK0 1.
 X3 LK1 3.
 X3 FK0 0.
 X3 FK1 1.
 X4 COST -7.
 X4 LK0 -4.
 X4 LK1 5.
 X4 FK0 1.
 X4 FK1 0.
 X5 COST 7.
 X5 LK0 1.
 X5 LK1 -3.
 X5 FK0 0.
 X5 FK1 1.
 X6 COST 6.
 X6 LK0 4.
 X6 LK1 0.
 X6 FK0 0.
 X6 FK1 0.
 X7 COST 2.
 X7 LK0 -3.
 X7 LK1 3.
 X7 FK0 1.
 X7 FK1 1.
 X8 COST 10.
 X8 LK0 -5.
 X8 LK1 -5.
 X8 FK0 1.
 X8 FK1 1.
 X9 COST -9.
 X9 LK0 2.
 X9 LK1 -5.
 X9 FK0 1.
 X9 FK1 0.
 X10 COST 3.
 X10 LK0 1.
 X10 LK1 -5.
 X10 FK0 1.
 X10 FK1 1.
 X11 COST -10.
 X11 LK0 3.
 X11 LK1 5.
 X11 FK0 1.
 X11 FK1 1.
 X12 COST 5.
 X12 LK0 4.
 X12 LK1 3.
 X12 FK0 1.
 X12 FK1 0.
 X13 COST -5.
 X13 LK0 0.
 X13 LK1 -1.
 X13 FK0 1.
 X13 FK1 0.
 X14 COST -10.
 X14 LK0 -5.
 X14 LK1 5.
 X14 FK0 0.
 X14 FK1 1.
 X15 COST -1.
 X15 LK0 -3.
 X15 LK1 1.
 X15 FK0 0.
 X15 FK1 0.
 X16 COST -10.
 X16 LK0 3.
 X16 LK1 -1.
 X16 FK0 0.
 X16 FK1 1.
 X17 COST 5.
 X17 LK0 -5.
 X17 LK1 -4.
 X17 FK0 0.
 X17 FK1 1.
 X18 COST 8.
 X18 LK0 5.
 X18 LK1 4.
 X18 FK0 1.
 X18 FK1 1.
 X19 COST -8.
 X19 LK0 1.
 X19 LK1 -4.
 X19 FK0 0.
 X19 FK1 0.
 X20 COST -10.
 X20 LK0 -5.
 X20 LK1 -4.
 X20 FK0 1.
 X20 FK1 0.
 X21 COST 4.
 X21 LK0 -3.
 X21 LK1 -1.
 X21 FK0 1.
 X21 FK1 0.
 X22 COST -7.
 X22 LK0 -1.
 X22 LK1 2.
 X22 FK0 1.
 X22 FK1 0.
 X23 COST -9.
 X23 LK0 1.
 X23 LK1 0.
 X23 FK0 1.
 X23 FK1 1.
 X24 COST 1.
 X24 LK0 1.
 X24 LK1 -5.
 X24 FK0 1.
 X24 FK1 0.
 X25 COST 9.
 X25 LK0 2.
 X25 LK1 -1.
 X25 FK0 0.
 X25 FK1 0.
 X26 COST -7.
 X26 LK0 3.
 X26 LK1 4.
 X26 FK0 1.
 X26 FK1 1.
 X27 COST -6.
 X27 LK0 2.
 X27 LK1 1.
 X27 FK0 1.
 X27 FK1 1.
 X28 COST -2.
 X28 LK0 3.
 X28 LK1 -2.
 X28 FK0 1.
 X28 FK1 1.
 X29 COST -6.
 X29 LK0 0.
 X29 LK1 -5.
 X29 FK0 1.
 X29 FK1 1.
 X30 COST -9.
 X30 LK0 5.
 X30 LK1 -5.
 X30 FK0 1.
 X30 FK1 0.
 X31 COST -4.
 X31 LK0 2.
 X31 LK1 1.
 X31 FK0 0.
 X31 FK1 1.
 X32 COST -2.
 X32 LK0 1.
 X32 LK1 -4.
 X32 FK0 1.
 X32 FK1 1.
 X33 COST 9.
 X33 LK0 4.
 X33 LK1 2.
 X33 FK0 1.
 X33 FK1 1.
 X34 COST -9.
 X34 LK0 4.
 X34 LK1 1.
 X34 FK0 0.
 X34 FK1 0.
 X35 COST -6.
 X35 LK0 3.
 X35 LK1 5.
 X35 FK0 1.
 X35 FK1 1.
 X36 COST 1.
 X36 LK0 0.
 X36 LK1 -1.
 X36 FK0 0.
 X36 FK1 0.
 X37 COST 2.
 X37 LK0 5.
 X37 LK1 1.
 X37 FK0 0.
 X37 FK1 0.
 X38 COST -6.
 X38 LK0 4.
 X38 LK1 0.
 X38 FK0 1.
 X38 FK1 0.
 X39 COST -8.
 X39 LK0 1.
 X39 LK1 3.
 X39 FK0 1.
 X39 FK1 0.
 X40 COST 8.
 X40 LK0 3.
 X40 LK1 3.
 X40 FK0 1.
 X40 FK1 0.
 X41 COST -7.
 X41 LK0 5.
 X41 LK1 -2.
 X41 FK0 1.
 X41 FK1 1.
 X42 COST 0.
 X42 LK0 -5.
 X42 LK1 -5.
 X42 FK0 1.
 X42 FK1 1.
 X43 COST 9.
 X43 LK0 -4.
 X43 LK1 -4.
 X43 FK0 0.
 X43 FK1 0.
 X44 COST -10.
 X44 LK0 -1.
 X44 LK1 0.
 X44 FK0 1.
 X44 FK1 0.
 X45 COST -7.
 X45 LK0 -1.
 X45 LK1 -4.
 X45 FK0 1.
 X45 FK1 0.
 X46 COST 8.
 X46 LK0 -1.
 X46 LK1 2.
 X46 FK0 1.
 X46 FK1 0.
 X47 COST -6.
 X47 LK0 1.
 X47 LK1 -4.
 X47 FK0 0.
 X47 FK1 0.
 X48 COST 8.
 X48 LK0 -5.
 X48 LK1 5.
 X48 FK0 1.
 X48 FK1 1.
 X49 COST -3.
 X49 LK0 -3.
 X49 LK1 0.
 X49 FK0 1.
 X49 FK1 0.
 Y0 COST 7.
 Y0 LK0 0.
 Y0 LK1 0.
 Y0 FK0 5.
 Y0 FK1 5.
 Y1 COST 0.
 Y1 LK0 0.
 Y1 LK1 1.
 Y1 FK0 4.
 Y1 FK1 2.
 Y2 COST 2.
 Y2 LK0 0.
 Y2 LK1 0.
 Y2 FK0 -4.
 Y2 FK1 2.
 Y3 COST 10.
 Y3 LK0 1.
 Y3 LK1 0.
 Y3 FK0 4.
 Y3 FK1 1.
 Y4 COST 3.
 Y4 LK0 1.
 Y4 LK1 0.
 Y4 FK0 5.
 Y4 FK1 0.
 Y5 COST 8.
 Y5 LK0 0.
 Y5 LK1 1.
 Y5 FK0 0.
 Y5 FK1 2.
 Y6 COST 0.
 Y6 LK0 0.
 Y6 LK1 0.
 Y6 FK0 5.
 Y6 FK1 2.
 Y7 COST 9.
 Y7 LK0 1.
 Y7 LK1 0.
 Y7 FK0 -3.
 Y7 FK1 -3.
 Y8 COST 10.
 Y8 LK0 1.
 Y8 LK1 0.
 Y8 FK0 2.
 Y8 FK1 4.
 Y9 COST 10.
 Y9 LK0 0.
 Y9 LK1 0.
 Y9 FK0 -4.
 Y9 FK1 -3.
 Y10 COST 2.
 Y10 LK0 1.
 Y10 LK1 0.
 Y10 FK0 -1.
 Y10 FK1 3.
 Y11 COST 6.
 Y11 LK0 0.
 Y11 LK1 1.
 Y11 FK0 3.
 Y11 FK1 -5.
 Y12 COST 2.
 Y12 LK0 0.
 Y12 LK1 0.
 Y12 FK0 -4.
 Y12 FK1 0.
 Y13 COST 3.
 Y13 LK0 1.
 Y13 LK1 0.
 Y13 FK0 -2.
 Y13 FK1 -4.
 Y14 COST 8.
 Y14 LK0 1.
 Y14 LK1 0.
 Y14 FK0 3.
 Y14 FK1 2.
 Y15 COST 1.
 Y15 LK0 1.
 Y15 LK1 0.
 Y15 FK0 3.
 Y15 FK1 -3.
 Y16 COST 1.
 Y16 LK0 0.
 Y16 LK1 1.
 Y16 FK0 4.
 Y16 FK1 -3.
 Y17 COST 9.
 Y17 LK0 1.
 Y17 LK1 0.
 Y17 FK0 -2.
 Y17 FK1 -2.
 Y18 COST 1.
 Y18 LK0 1.
 Y18 LK1 1.
 Y18 FK0 -4.
 Y18 FK1 -2.
 Y19 COST 3.
 Y19 LK0 1.
 Y19 LK1 1.
 Y19 FK0 3.
 Y19 FK1 1.
 Y20 COST 4.
 Y20 LK0 0.
 Y20 LK1 0.
 Y20 FK0 1.
 Y20 FK1 4.
 Y21 COST 7.
 Y21 LK0 0.
 Y21 LK1 0.
 Y21 FK0 3.
 Y21 FK1 -5.
 Y22 COST 8.
 Y22 LK0 1.
 Y22 LK1 1.
 Y22 FK0 -5.
 Y22 FK1 4.
 Y23 COST 7.
 Y23 LK0 0.
 Y23 LK1 0.
 Y23 FK0 -2.
 Y23 FK1 0.
 Y24 COST 9.
 Y24 LK0 1.
 Y24 LK1 1.
 Y24 FK0 -3.
 Y24 FK1 -2.
 Y25 COST 8.
 Y25 LK0 0.
 Y25 LK1 1.
 Y25 FK0 5.
 Y25 FK1 4.
 Y26 COST 9.
 Y26 LK0 0.
 Y26 LK1 1.
 Y26 FK0 2.
 Y26 FK1 1.
 Y27 COST 7.
 Y27 LK0 1.
 Y27 LK1 0.
 Y27 FK0 4.
 Y27 FK1 4.
 Y28 COST 2.
 Y28 LK0 1.
 Y28 LK1 0.
 Y28 FK0 2.
 Y28 FK1 4.
 Y29 COST 8.
 Y29 LK0 0.
 Y29 LK1 0.
 Y29 FK0 2.
 Y29 FK1 1.
 Y30 COST 0.
 Y30 LK0 0.
 Y30 LK1 1.
 Y30 FK0 -3.
 Y30 FK1 -2.
 Y31 COST 2.
 Y31 LK0 0.
 Y31 LK1 0.
 Y31 FK0 2.
 Y31 FK1 3.
 Y32 COST 2.
 Y32 LK0 1.
 Y32 LK1 1.
 Y32 FK0 -3.
 Y32 FK1 -1.
 Y33 COST 10.
 Y33 LK0 0.
 Y33 LK1 0.
 Y33 FK0 3.
 Y33 FK1 -5.
 Y34 COST 5.
 Y34 LK0 0.
 Y34 LK1 1.
 Y34 FK0 2.
 Y34 FK1 1.
 Y35 COST 8.
 Y35 LK0 0.
 Y35 LK1 0.
 Y35 FK0 2.
 Y35 FK1 5.
 Y36 COST 7.
 Y36 LK0 0.
 Y36 LK1 0.
 Y36 FK0 3.
 Y36 FK1 -2.
 Y37 COST 6.
 Y37 LK0 0.
 Y37 LK1 0.
 Y37 FK0 -2.
 Y37 FK1 3.
 Y38 COST 4.
 Y38 LK0 1.
 Y38 LK1 1.
 Y38 FK0 -3.
 Y38 FK1 1.
 Y39 COST 7.
 Y39 LK0 0.
 Y39 LK1 1.
 Y39 FK0 -2.
 Y39 FK1 4.
 Y40 COST 2.
 Y40 LK0 1.
 Y40 LK1 1.
 Y40 FK0 3.
 Y40 FK1 2.
 Y41 COST 7.
 Y41 LK0 1.
 Y41 LK1 1.
 Y41 FK0 -5.
 Y41 FK1 -2.
 Y42 COST 7.
 Y42 LK0 0.
 Y42 LK1 1.
 Y42 FK0 -5.
 Y42 FK1 2.
 Y43 COST 3.
 Y43 LK0 0.
 Y43 LK1 0.
 Y43 FK0 3.
 Y43 FK1 -5.
 Y44 COST 5.
 Y44 LK0 0.
 Y44 LK1 0.
 Y44 FK0 5.
 Y44 FK1 0.
 Y45 COST 5.
 Y45 LK0 0.
 Y45 LK1 1.
 Y45 FK0 2.
 Y45 FK1 4.
 Y46 COST 4.
 Y46 LK0 1.
 Y46 LK1 0.
 Y46 FK0 -3.
 Y46 FK1 5.
 Y47 COST 8.
 Y47 LK0 1.
 Y47 LK1 1.
 Y47 FK0 5.
 Y47 FK1 1.
 Y48 COST 7.
 Y48 LK0 1.
 Y48 LK1 0.
 Y48 FK0 -5.
 Y48 FK1 3.
 Y49 COST 9.
 Y49 LK0 0.
 Y49 LK1 0.
 Y49 FK0 3.
 Y49 FK1 -2.
RHS
 RHS LK0 12.
 RHS LK1 1.
 RHS FK0 15.
 RHS FK1 13.
BOUNDS
 UI BOUND	X0	1.
 LI BOUND	X0	0.
 UI BOUND	X1	1.
 LI BOUND	X1	0.
 UI BOUND	X2	1.
 LI BOUND	X2	0.
 UI BOUND	X3	1.
 LI BOUND	X3	0.
 UI BOUND	X4	1.
 LI BOUND	X4	0.
 UI BOUND	X5	1.
 LI BOUND	X5	0.
 UI BOUND	X6	1.
 LI BOUND	X6	0.
 UI BOUND	X7	1.
 LI BOUND	X7	0.
 UI BOUND	X8	1.
 LI BOUND	X8	0.
 UI BOUND	X9	1.
 LI BOUND	X9	0.
 UI BOUND	X10	1.
 LI BOUND	X10	0.
 UI BOUND	X11	1.
 LI BOUND	X11	0.
 UI BOUND	X12	1.
 LI BOUND	X12	0.
 UI BOUND	X13	1.
 LI BOUND	X13	0.
 UI BOUND	X14	1.
 LI BOUND	X14	0.
 UI BOUND	X15	1.
 LI BOUND	X15	0.
 UI BOUND	X16	1.
 LI BOUND	X16	0.
 UI BOUND	X17	1.
 LI BOUND	X17	0.
 UI BOUND	X18	1.
 LI BOUND	X18	0.
 UI BOUND	X19	1.
 LI BOUND	X19	0.
 UI BOUND	X20	1.
 LI BOUND	X20	0.
 UI BOUND	X21	1.
 LI BOUND	X21	0.
 UI BOUND	X22	1.
 LI BOUND	X22	0.
 UI BOUND	X23	1.
 LI BOUND	X23	0.
 UI BOUND	X24	1.
 LI BOUND	X24	0.
 UI BOUND	X25	1.
 LI BOUND	X25	0.
 UI BOUND	X26	1.
 LI BOUND	X26	0.
 UI BOUND	X27	1.
 LI BOUND	X27	0.
 UI BOUND	X28	1.
 LI BOUND	X28	0.
 UI BOUND	X29	1.
 LI BOUND	X29	0.
 UI BOUND	X30	1.
 LI BOUND	X30	0.
 UI BOUND	X31	1.
 LI BOUND	X31	0.
 UI BOUND	X32	1.
 LI BOUND	X32	0.
 UI BOUND	X33	1.
 LI BOUND	X33	0.
 UI BOUND	X34	1.
 LI BOUND	X34	0.
 UI BOUND	X35	1.
 LI BOUND	X35	0.
 UI BOUND	X36	1.
 LI BOUND	X36	0.
 UI BOUND	X37	1.
 LI BOUND	X37	0.
 UI BOUND	X38	1.
 LI BOUND	X38	0.
 UI BOUND	X39	1.
 LI BOUND	X39	0.
 UI BOUND	X40	1.
 LI BOUND	X40	0.
 UI BOUND	X41	1.
 LI BOUND	X41	0.
 UI BOUND	X42	1.
 LI BOUND	X42	0.
 UI BOUND	X43	1.
 LI BOUND	X43	0.
 UI BOUND	X44	1.
 LI BOUND	X44	0.
 UI BOUND	X45	1.
 LI BOUND	X45	0.
 UI BOUND	X46	1.
 LI BOUND	X46	0.
 UI BOUND	X47	1.
 LI BOUND	X47	0.
 UI BOUND	X48	1.
 LI BOUND	X48	0.
 UI BOUND	X49	1.
 LI BOUND	X49	0.
 UI BOUND	Y0	1.
 LI BOUND	Y0	0.
 UI BOUND	Y1	1.
 LI BOUND	Y1	0.
 UI BOUND	Y2	1.
 LI BOUND	Y2	0.
 UI BOUND	Y3	1.
 LI BOUND	Y3	0.
 UI BOUND	Y4	1.
 LI BOUND	Y4	0.
 UI BOUND	Y5	1.
 LI BOUND	Y5	0.
 UI BOUND	Y6	1.
 LI BOUND	Y6	0.
 UI BOUND	Y7	1.
 LI BOUND	Y7	0.
 UI BOUND	Y8	1.
 LI BOUND	Y8	0.
 UI BOUND	Y9	1.
 LI BOUND	Y9	0.
 UI BOUND	Y10	1.
 LI BOUND	Y10	0.
 UI BOUND	Y11	1.
 LI BOUND	Y11	0.
 UI BOUND	Y12	1.
 LI BOUND	Y12	0.
 UI BOUND	Y13	1.
 LI BOUND	Y13	0.
 UI BOUND	Y14	1.
 LI BOUND	Y14	0.
 UI BOUND	Y15	1.
 LI BOUND	Y15	0.
 UI BOUND	Y16	1.
 LI BOUND	Y16	0.
 UI BOUND	Y17	1.
 LI BOUND	Y17	0.
 UI BOUND	Y18	1.
 LI BOUND	Y18	0.
 UI BOUND	Y19	1.
 LI BOUND	Y19	0.
 UI BOUND	Y20	1.
 LI BOUND	Y20	0.
 UI BOUND	Y21	1.
 LI BOUND	Y21	0.
 UI BOUND	Y22	1.
 LI BOUND	Y22	0.
 UI BOUND	Y23	1.
 LI BOUND	Y23	0.
 UI BOUND	Y24	1.
 LI BOUND	Y24	0.
 UI BOUND	Y25	1.
 LI BOUND	Y25	0.
 UI BOUND	Y26	1.
 LI BOUND	Y26	0.
 UI BOUND	Y27	1.
 LI BOUND	Y27	0.
 UI BOUND	Y28	1.
 LI BOUND	Y28	0.
 UI BOUND	Y29	1.
 LI BOUND	Y29	0.
 UI BOUND	Y30	1.
 LI BOUND	Y30	0.
 UI BOUND	Y31	1.
 LI BOUND	Y31	0.
 UI BOUND	Y32	1.
 LI BOUND	Y32	0.
 UI BOUND	Y33	1.
 LI BOUND	Y33	0.
 UI BOUND	Y34	1.
 LI BOUND	Y34	0.
 UI BOUND	Y35	1.
 LI BOUND	Y35	0.
 UI BOUND	Y36	1.
 LI BOUND	Y36	0.
 UI BOUND	Y37	1.
 LI BOUND	Y37	0.
 UI BOUND	Y38	1.
 LI BOUND	Y38	0.
 UI BOUND	Y39	1.
 LI BOUND	Y39	0.
 UI BOUND	Y40	1.
 LI BOUND	Y40	0.
 UI BOUND	Y41	1.
 LI BOUND	Y41	0.
 UI BOUND	Y42	1.
 LI BOUND	Y42	0.
 UI BOUND	Y43	1.
 LI BOUND	Y43	0.
 UI BOUND	Y44	1.
 LI BOUND	Y44	0.
 UI BOUND	Y45	1.
 LI BOUND	Y45	0.
 UI BOUND	Y46	1.
 LI BOUND	Y46	0.
 UI BOUND	Y47	1.
 LI BOUND	Y47	0.
 UI BOUND	Y48	1.
 LI BOUND	Y48	0.
 UI BOUND	Y49	1.
 LI BOUND	Y49	0.
ENDATA
